Ti Al  B                                
   1.00000000000000     
    20.7387754713723211    0.0000000000000000    0.0000000000000000
     0.0000000000000000   20.1808224395979394    0.0000000000000000
     0.0000000000000000    0.0000000000000000   18.7770921638321582
   Ti   Al   B 
     2     4    12
Direct
  0.5307216988285876  0.5649034541415935  0.6322239682809625
  0.5165573141659802  0.5195759118691332  0.4933557076216147
  0.6348693093517781  0.5732483710604980  0.5254554269794638
  0.5433599200837010  0.3751906909872696  0.5373123796656055
  0.6429334306010733  0.4398791000066326  0.4855409178391824
  0.6167233749979369  0.4690578583872962  0.6154802101290984
  0.5133471329606021  0.4560049513725423  0.6083681797714773
  0.4228027021838668  0.2954102621626442  0.4745533985678630
  0.5617148245238710  0.6363322130205825  0.5550865987202362
  0.4899688227089456  0.2954224927270507  0.5065720468217746
  0.4485869431630877  0.5005772755806863  0.5949630291327909
  0.4321418744021313  0.3603422912462521  0.5164149696743587
  0.5451037650727726  0.6273522169648160  0.4705226105223447
  0.4386695385732800  0.5744207528539497  0.5708280319555592
  0.6269096057300136  0.5201504602197519  0.4264234642154575
  0.5872365289361787  0.5846090151917875  0.4179709360645451
  0.4513561068878210  0.4264509225363952  0.5605019750457750
  0.4871086208032011  0.6230542358243926  0.5350941825543490
 
  0.00000000E+00  0.00000000E+00  0.00000000E+00
  0.00000000E+00  0.00000000E+00  0.00000000E+00
  0.00000000E+00  0.00000000E+00  0.00000000E+00
  0.00000000E+00  0.00000000E+00  0.00000000E+00
  0.00000000E+00  0.00000000E+00  0.00000000E+00
  0.00000000E+00  0.00000000E+00  0.00000000E+00
  0.00000000E+00  0.00000000E+00  0.00000000E+00
  0.00000000E+00  0.00000000E+00  0.00000000E+00
  0.00000000E+00  0.00000000E+00  0.00000000E+00
  0.00000000E+00  0.00000000E+00  0.00000000E+00
  0.00000000E+00  0.00000000E+00  0.00000000E+00
  0.00000000E+00  0.00000000E+00  0.00000000E+00
  0.00000000E+00  0.00000000E+00  0.00000000E+00
  0.00000000E+00  0.00000000E+00  0.00000000E+00
  0.00000000E+00  0.00000000E+00  0.00000000E+00
  0.00000000E+00  0.00000000E+00  0.00000000E+00
  0.00000000E+00  0.00000000E+00  0.00000000E+00
  0.00000000E+00  0.00000000E+00  0.00000000E+00
