Ti Al  B 
 1.0000000000000000
    20.7387754713723211    0.0000000000000000    0.0000000000000000
     0.0000000000000000   20.1808224395979394    0.0000000000000000
     0.0000000000000000    0.0000000000000000   18.7770921638321582
 Ti  Al  B  
   2   4  12
Cartesian
 10.2346674633654224 11.1767476163922179 13.2275223860779700
 11.2314769406911807 10.1709154908778192 10.4399637601031312
 13.8432454013938155 12.2850812174302337  9.5462841419163684
 11.6467161651442126  7.1567490121158528  7.6825687262646909
 12.8951964443441049  7.6048293131773104  9.5389676214601575
 15.1985443449825937  7.4002017348526090 11.3793507852834388
  9.0050770478152504 10.5137202771142153 12.7621946691448418
 11.9087005931088061  7.6136713874066979  9.9517031906184066
 11.8633201482190742  8.5629581266608028 10.1267403292121845
  8.1486318231761583  7.4725749492835760  9.0985960361318128
  8.4799743628746924  8.4851751197498864  9.3861556033896676
  9.9698014181522367  8.9046758998180913 10.5490878615390322
 11.3179017780856128 12.2631552189796551  9.2061657514288626
  7.5652309908207451 10.9626933945366840  9.2409321424811441
 13.0717356589646521 11.5453405190854230  7.2842215732861328
 11.4934928369917628 13.7010104808675752  7.6076786711033240
  9.5246796723595342  9.7259485074152359 11.9022877131631297
  9.4148987961196955 12.8930300995220097  9.9527027178317180
