Ti Al  B                                
   1.00000000000000     
    20.7387754713723211    0.0000000000000000    0.0000000000000000
     0.0000000000000000   20.1808224395979394    0.0000000000000000
     0.0000000000000000    0.0000000000000000   18.7770921638321582
   Ti   Al   B 
     2     4    12
Direct
  0.4292153461255874  0.4951042031967620  0.5106484361205665
  0.4845778871125421  0.3883603673839475  0.3940411603846021
  0.5575246893696336  0.4823183277451826  0.4738503000195275
  0.5407645120135206  0.3454504421675145  0.5137944297893062
 -0.3802366571039867  0.3803453297314262  0.4014340744130336
  0.6488969888490116  0.4100979813752577  0.5378717860323262
  0.4520007251273850  0.5332853478792208  0.6456393914059145
  0.5132897987633167  0.5840033594050730  0.5083582718063931
  0.4413857631042236  0.3803755258617969  0.5068412505458202
  0.3924990192210752  0.4070108984148364  0.4486166180219875
  0.4089830995821540  0.4620337911745659  0.3939470496125350
  0.4845826519642839  0.4174230527740422  0.5672109541033512
  0.5022994547328639  0.5643552521412177  0.4308405591342700
  0.4888486621856639  0.5700408963686149  0.5858328215871975
  0.4754247474229759  0.5012686045871354  0.3913072390741378
  0.3028402578469496 -0.0640450166353521  0.3929561915169912
  0.5032088486652672  0.4815068038024060  0.6219721742534009
  0.5612544316954335  0.4306272091779287  0.5893112814537769
 
  0.00000000E+00  0.00000000E+00  0.00000000E+00
  0.00000000E+00  0.00000000E+00  0.00000000E+00
  0.00000000E+00  0.00000000E+00  0.00000000E+00
  0.00000000E+00  0.00000000E+00  0.00000000E+00
  0.00000000E+00  0.00000000E+00  0.00000000E+00
  0.00000000E+00  0.00000000E+00  0.00000000E+00
  0.00000000E+00  0.00000000E+00  0.00000000E+00
  0.00000000E+00  0.00000000E+00  0.00000000E+00
  0.00000000E+00  0.00000000E+00  0.00000000E+00
  0.00000000E+00  0.00000000E+00  0.00000000E+00
  0.00000000E+00  0.00000000E+00  0.00000000E+00
  0.00000000E+00  0.00000000E+00  0.00000000E+00
  0.00000000E+00  0.00000000E+00  0.00000000E+00
  0.00000000E+00  0.00000000E+00  0.00000000E+00
  0.00000000E+00  0.00000000E+00  0.00000000E+00
  0.00000000E+00  0.00000000E+00  0.00000000E+00
  0.00000000E+00  0.00000000E+00  0.00000000E+00
  0.00000000E+00  0.00000000E+00  0.00000000E+00
