Ti Al  B 
 1.0000000000000000
    20.7387754713723211    0.0000000000000000    0.0000000000000000
     0.0000000000000000   20.1808224395979394    0.0000000000000000
     0.0000000000000000    0.0000000000000000   18.7770921638321582
 Ti  Al  B  
   2   4  12
Cartesian
  8.7873928278207174 10.0041321789969526  7.7985768251300946
  8.0314059461280625  8.6174114166291567  6.3563441939916192
 12.0650026920878553  9.6008600515425098  8.5652559307216070
 12.9675022101955157  5.9925642576879472  7.6320771483940222
 10.4574018071740049  8.0516347278776141  8.5345076304001104
 12.3045788422717060  7.5111724174960806 11.2623944613122653
  9.4787268410921079 11.2009580719911401 12.7640400581254596
 10.0554018003874344 10.5496500462293419  9.5300792314893492
  9.2320614651388180  7.1379914725789133  8.1478829656947962
  8.4337263241986946  8.6548873556294001  9.9368292158568998
 10.0480582299329448  9.5300159593027782  9.1293734693642925
 10.3628639007259693 10.4752118606256612 10.8495071572866735
 12.2627165681119408 12.8949731808096679  8.0127826566370306
  8.3769521865299410 11.4344047909405262  9.7007700613278889
 10.0137441983531854 11.0337969718783118  6.6508362044238858
  9.8743565736910277 12.4600401801009113 10.2575525176838678
  9.6397109146766375 10.1273030163615960 11.6841308511416599
 10.2622629080513477 11.6999732374871463 10.5749591097223554
