Ti Al  B                                
   1.00000000000000     
    20.7387754713723211    0.0000000000000000    0.0000000000000000
     0.0000000000000000   20.1808224395979394    0.0000000000000000
     0.0000000000000000    0.0000000000000000   18.7770921638321582
   Ti   Al   B 
     2     4    12
Direct
  0.4620620548178566  0.3868283283111628  0.5471174111188025
  0.4825689672348810  0.5259320317880922  0.5134028775364199
  0.6275119788194017  0.6228298562872188  0.5159918003322518
  0.5909763322534921  0.3552581963091886  0.3707747665260235
  0.5860489881787903  0.4212307368446911  0.5206715472446893
  0.6072998767413341  0.5217975225992519  0.5919404310276466
  0.4525013650529244  0.4806151057691150  0.6251763738168699
  0.5364933915264269  0.4623177243180870  0.4180291314986641
  0.5190830730138449  0.3799615167923527  0.4455499664173718
  0.3959101184764341  0.4623351745556185  0.4802717487446825
  0.4614243044767294  0.4368065282660265  0.4441174436690988
  0.5250373239774055  0.4589925254528913  0.6040151596785923
  0.5570321970326226  0.5329302167381572  0.3879461447478393
  0.3720079367247007  0.5273849364546118  0.5251136784477555
  0.5860882755805694  0.5243904274782476  0.4747031738869457
  0.5775276824118138  0.5959460471179906  0.4292208911923611
  0.3902892688128682  0.4593056818562011  0.5694065540569196
  0.3996412868625006  0.5356155360988771  0.6025013587992294
 
  0.00000000E+00  0.00000000E+00  0.00000000E+00
  0.00000000E+00  0.00000000E+00  0.00000000E+00
  0.00000000E+00  0.00000000E+00  0.00000000E+00
  0.00000000E+00  0.00000000E+00  0.00000000E+00
  0.00000000E+00  0.00000000E+00  0.00000000E+00
  0.00000000E+00  0.00000000E+00  0.00000000E+00
  0.00000000E+00  0.00000000E+00  0.00000000E+00
  0.00000000E+00  0.00000000E+00  0.00000000E+00
  0.00000000E+00  0.00000000E+00  0.00000000E+00
  0.00000000E+00  0.00000000E+00  0.00000000E+00
  0.00000000E+00  0.00000000E+00  0.00000000E+00
  0.00000000E+00  0.00000000E+00  0.00000000E+00
  0.00000000E+00  0.00000000E+00  0.00000000E+00
  0.00000000E+00  0.00000000E+00  0.00000000E+00
  0.00000000E+00  0.00000000E+00  0.00000000E+00
  0.00000000E+00  0.00000000E+00  0.00000000E+00
  0.00000000E+00  0.00000000E+00  0.00000000E+00
  0.00000000E+00  0.00000000E+00  0.00000000E+00
