Ti Al  B 
 1.0000000000000000
    20.7387754713723211    0.0000000000000000    0.0000000000000000
     0.0000000000000000   20.1808224395979394    0.0000000000000000
     0.0000000000000000    0.0000000000000000   18.7770921638321582
 Ti  Al  B  
   2   4  12
Cartesian
  9.0300572850157224  6.1263045060963677 11.6248884538143624
  8.5616066729817213 10.8188106840494083  8.3389473164169701
 14.1329935384943965 12.8840968536328937  9.7590941100395359
 13.2581549559803022  7.3161156203583513  6.9614325633097218
 12.5863271304625748  7.9270487501068239  8.3757314332385562
 13.4330326298656431 10.9247698481932396 11.6375352520000988
  9.1284935619130412 10.2946308693272712 11.6324864193252004
 11.3025945024971826  9.7943072222189560  8.2823974449248983
 11.1780742499406855  6.4269159061823133  7.7995645456741549
  6.6899363648104879 10.0573797149435435  8.6419981936700569
  8.9351133670946563  8.4130372572375531  8.9785440395318457
 11.2926045809032463  8.6878599103817926 12.2650950540028134
 10.7168523359349361 10.6402147886244194  7.6763533026763540
  6.4595526969779637 10.7661650356366501  9.5674096919126921
 12.5947613056352026 10.3620201024089660  8.9337748886620414
 11.8527417332031710 13.2519728187167445  8.1901268117991162
  8.8090514156923732  9.4588554358972488 10.5844115804823176
  9.3727940452434169 11.2304899867983821 10.9823962150573422
