Ti Al  B                                
   1.00000000000000     
    20.7387754713723211    0.0000000000000000    0.0000000000000000
     0.0000000000000000   20.1808224395979394    0.0000000000000000
     0.0000000000000000    0.0000000000000000   18.7770921638321582
   Ti   Al   B 
     2     4    12
Direct
  0.4634929533481158  0.5308594899411071  0.4428804498193811
  0.4327044574760830  0.4241913415273841  0.5576491086419365
  0.5368267989260916  0.5980360229798974  0.5561330233996630
  0.5103195484679270  0.4052051574147015  0.4299372575917871
  0.5749714118481873  0.3991248682650784  0.5557118876890396
  0.6301416174798916  0.5118872902787450  0.5639413577711188
  0.4536542526197428  0.5323975114409379  0.5706762001462284
  0.5640289374018960  0.4855337581828822  0.4702260437006506
  0.5020267620946040  0.3385908441726179  0.5173899148602644
  0.4034470723340069  0.4077785026332060  0.4423368352911349
  0.4405547512852780  0.3425918293502586  0.4709719500018221
  0.5165893691492048  0.4860612264249615  0.5488522210271400
  0.5337308437603953  0.6246687721035039  0.4393243064653893
  0.3709127014706411  0.4708229008975966  0.4733641345543431
  0.5740749758443003  0.5594247923801021  0.4431745633274330
  0.4716106703469959  0.6446411817876705  0.4789241001406171
  0.3857712089447647  0.5275315704777470  0.5285824952616640
  0.4284576614878867  0.6004724306191866  0.5305769581075144
 
  0.00000000E+00  0.00000000E+00  0.00000000E+00
  0.00000000E+00  0.00000000E+00  0.00000000E+00
  0.00000000E+00  0.00000000E+00  0.00000000E+00
  0.00000000E+00  0.00000000E+00  0.00000000E+00
  0.00000000E+00  0.00000000E+00  0.00000000E+00
  0.00000000E+00  0.00000000E+00  0.00000000E+00
  0.00000000E+00  0.00000000E+00  0.00000000E+00
  0.00000000E+00  0.00000000E+00  0.00000000E+00
  0.00000000E+00  0.00000000E+00  0.00000000E+00
  0.00000000E+00  0.00000000E+00  0.00000000E+00
  0.00000000E+00  0.00000000E+00  0.00000000E+00
  0.00000000E+00  0.00000000E+00  0.00000000E+00
  0.00000000E+00  0.00000000E+00  0.00000000E+00
  0.00000000E+00  0.00000000E+00  0.00000000E+00
  0.00000000E+00  0.00000000E+00  0.00000000E+00
  0.00000000E+00  0.00000000E+00  0.00000000E+00
  0.00000000E+00  0.00000000E+00  0.00000000E+00
  0.00000000E+00  0.00000000E+00  0.00000000E+00
