Ti Al  B 
 1.0000000000000000
    20.7387754713723211    0.0000000000000000    0.0000000000000000
     0.0000000000000000   20.1808224395979394    0.0000000000000000
     0.0000000000000000    0.0000000000000000   18.7770921638321582
 Ti  Al  B  
   2   4  12
Cartesian
 10.1020008462469484 10.0961534832657289  8.0098975014679770
  8.0160359548485491  7.8565609396554663  9.1145698801886343
 11.6492127180402907 12.7433660051549928 11.7136310696098143
  9.8126579662678708  8.7372741819861659  7.2042949584691351
 11.2658488932297551  8.0880979796834840 11.4724659979504473
 13.4313929233855909 10.1479555531339329 10.2037334849448076
  9.2130812382333787 11.1336082080502941 10.9806903595829830
 12.4522198622230196  9.8442241838466256  8.6855467711605403
 11.5383105966075465  6.1634033513563304  9.5734052915067824
  6.6170843058446271  9.2492634760138213  7.3913465021244917
  9.8765088611614580  6.6605726254677666 10.3451155290052181
 11.6840627641061641 10.2773960959095767 10.3122012361352748
 11.2022457785988099 11.9941391595735105  8.0934128400039143
  6.9086039508291304  9.1913341865438554  9.4694826897457300
 12.4533202113835291 11.6018137227524516  9.8124142881795606
  8.8101830517609798 12.5806169348496812  7.5596684135045473
  8.6042038513912988  9.8575271384266259  9.5200168496943274
  8.7256322801655664 13.1805614398071231  9.9197354866636740
