Ti Al  B                                
   1.00000000000000     
    20.7387754713723211    0.0000000000000000    0.0000000000000000
     0.0000000000000000   20.1808224395979394    0.0000000000000000
     0.0000000000000000    0.0000000000000000   18.7770921638321582
   Ti   Al   B 
     2     4    12
Direct
  0.4488539026377961  0.4238240136843112  0.5238961268589757
  0.5381857526517724  0.4997999039262937  0.4239070757369309
  0.5407741177096791  0.6092806568610163  0.6139747785034697
  0.4463453846708521  0.5427889415912898  0.3392287068780884
  0.6490745132482135  0.4295332242962698  0.4854532091359504
  0.6150961302947271  0.5362671906976223  0.5436847013178068
  0.4214112212081159  0.4913220107707393  0.6053936697126018
  0.4556636301537067  0.5798226033462243  0.4542638924165631
  0.5527583478589171  0.3947486122983082  0.4833306143790503
  0.4447103927402462  0.4427802539643017  0.4022017788373145
  0.4994577202889821  0.3936192648422464  0.4238695710836141
  0.5296937786900016  0.5849819981680234  0.4972102727795124
  0.4189062301762323  0.5056263910479000  0.4432317791849005
  0.4234559711801607  0.5329940444289377  0.5274388360690686
  0.5539044223390828  0.4497568736585634  0.5466949404590515
  0.4624523961267581  0.6118323531883751  0.5347062842718203
  0.5028311819625444  0.4988058773412904  0.5898842971129732
  0.4483357404269091  0.5651658002036343  0.6098603066501600
 
  0.00000000E+00  0.00000000E+00  0.00000000E+00
  0.00000000E+00  0.00000000E+00  0.00000000E+00
  0.00000000E+00  0.00000000E+00  0.00000000E+00
  0.00000000E+00  0.00000000E+00  0.00000000E+00
  0.00000000E+00  0.00000000E+00  0.00000000E+00
  0.00000000E+00  0.00000000E+00  0.00000000E+00
  0.00000000E+00  0.00000000E+00  0.00000000E+00
  0.00000000E+00  0.00000000E+00  0.00000000E+00
  0.00000000E+00  0.00000000E+00  0.00000000E+00
  0.00000000E+00  0.00000000E+00  0.00000000E+00
  0.00000000E+00  0.00000000E+00  0.00000000E+00
  0.00000000E+00  0.00000000E+00  0.00000000E+00
  0.00000000E+00  0.00000000E+00  0.00000000E+00
  0.00000000E+00  0.00000000E+00  0.00000000E+00
  0.00000000E+00  0.00000000E+00  0.00000000E+00
  0.00000000E+00  0.00000000E+00  0.00000000E+00
  0.00000000E+00  0.00000000E+00  0.00000000E+00
  0.00000000E+00  0.00000000E+00  0.00000000E+00
