Ti Al  B 
 1.0000000000000000
    20.7387754713723211    0.0000000000000000    0.0000000000000000
     0.0000000000000000   20.1808224395979394    0.0000000000000000
     0.0000000000000000    0.0000000000000000   18.7770921638321582
 Ti  Al  B  
   2   4  12
Cartesian
  7.9749637566476963  6.9033502230199648  8.6340469477139159
  9.1280134911141069 12.0224397376022711  5.5598892945935283
 10.9080309281826970 13.6847794764800419 11.8181288633242900
 10.4685127668235669  9.9578409651433688  6.8472125696904387
 14.0127170834978045  9.5527567880871871  8.8310325723112157
 15.2074911402299975 11.4801538613999838 11.7789364040481228
  8.5467459742774921 10.4845152212557355 11.5778821564672985
  9.9567403983064704 10.6061131794413299  8.0133027656215088
 11.5701446735464604  6.0415553171970666 10.4601111169055070
  8.1490788431060199  8.9353881854580344  7.6031350941625098
 10.8201485267969453  9.0195923529608937  7.2101011333903342
 10.8620896682895118 10.0313307285200146  9.9497411289720503
  9.7169930066775123 10.1798743234926441  9.4216216529938510
  7.0937362286067529 10.1379490477554270 10.9944059731394024
 11.4988815356760927  9.3817769630683845  9.0692767470947437
 11.0380600072533035 13.0386492384339387  9.7134707210952236
  9.5061355391142790 10.4367479351127042 10.7547166841835899
  9.1931852654880117 11.6083961466085608 11.6624526026605437
