Ti Al  B                                
   1.00000000000000     
    20.7387754713723211    0.0000000000000000    0.0000000000000000
     0.0000000000000000   20.1808224395979394    0.0000000000000000
     0.0000000000000000    0.0000000000000000   18.7770921638321582
   Ti   Al   B 
     2     4    12
Direct
  0.5286332195346463  0.3810385139652763  0.4287445804586529
  0.5378034758541668  0.5369473261015554  0.4283662100462364
  0.6185326461015305  0.4583432963069231  0.5089194501091139
  0.6992503819254057  0.4348312641111107  0.4084080564239714
  0.4067065569803958  0.4065946880539266  0.4711274351267983
  0.6014371191021206  0.6028118268268774  0.5298436748150641
  0.4553617642160571  0.4846609101292416  0.5522586669942183
  0.4337268036143064  0.5184342507348181  0.4586980907988104
  0.5195844758467116  0.4389288911590609  0.5284785499373316
  0.3744696784005641  0.4892346892177745  0.5207883207845393
  0.4626982359837014  0.4691175181655147  0.3945094492136920
  0.5377228338558691  0.5135804748874210  0.5582085085257342
  0.5289929549919679  0.4590605616114918  0.3544106005286806
  0.3943725455309706  0.5406650715971321  0.5795034038995363
  0.6002540148149754  0.4488099096277580  0.3853087827807392
  0.4757237637858113  0.5700433583900544  0.5206987544185355
  0.4550777341796409  0.5756422686382522  0.6115048054532717
  0.5290877905482381  0.5896781313173487  0.6015965208211582
 
  0.00000000E+00  0.00000000E+00  0.00000000E+00
  0.00000000E+00  0.00000000E+00  0.00000000E+00
  0.00000000E+00  0.00000000E+00  0.00000000E+00
  0.00000000E+00  0.00000000E+00  0.00000000E+00
  0.00000000E+00  0.00000000E+00  0.00000000E+00
  0.00000000E+00  0.00000000E+00  0.00000000E+00
  0.00000000E+00  0.00000000E+00  0.00000000E+00
  0.00000000E+00  0.00000000E+00  0.00000000E+00
  0.00000000E+00  0.00000000E+00  0.00000000E+00
  0.00000000E+00  0.00000000E+00  0.00000000E+00
  0.00000000E+00  0.00000000E+00  0.00000000E+00
  0.00000000E+00  0.00000000E+00  0.00000000E+00
  0.00000000E+00  0.00000000E+00  0.00000000E+00
  0.00000000E+00  0.00000000E+00  0.00000000E+00
  0.00000000E+00  0.00000000E+00  0.00000000E+00
  0.00000000E+00  0.00000000E+00  0.00000000E+00
  0.00000000E+00  0.00000000E+00  0.00000000E+00
  0.00000000E+00  0.00000000E+00  0.00000000E+00
