Ti Al  B 
 1.0000000000000000
    20.7387754713723211    0.0000000000000000    0.0000000000000000
     0.0000000000000000   20.1808224395979394    0.0000000000000000
     0.0000000000000000    0.0000000000000000   18.7770921638321582
 Ti  Al  B  
   2   4  12
Cartesian
 10.3749884817364002  7.2394473909275936  7.8614613953507950
 11.3743899408031570 10.5409996750810944  8.5295242334273880
 13.9735295857116455 10.2845869223613384 10.1436413531003815
 13.9273460313695079  8.4160193828449650  6.2937158098325483
  9.6433015616730398  8.1101843062783985  8.9014572788679693
 12.6632527088935216 10.9489851088213435  9.9158660852563596
 10.1298785976031738  9.3626586225708053 10.8839254318419041
  9.4063072383550068 10.0263737532936918  8.5411065578447936
 10.3418602682211223  8.8052370673128326  9.7302251340079930
  6.7657048139353844  9.9452414122417441  9.4428532589262471
 10.2126314867616621  8.9303943617450283  8.0601750349036259
 10.4966360203416063  9.9764001748459759 11.4879599198933597
 10.8386705073253111 10.2520887863450803  6.6271321091410034
  7.7846903799497289 11.7050774187687416 11.3620582486057451
 12.7652258988982901  9.1150020499381998  6.7873811571588574
 10.5545605099454942 11.5391054389346266  9.1024292359438963
  8.6396765025219580 11.3936603319277623 10.8540496418835648
 10.0628360162037094 13.3896478079287480 11.4903299594622528
