Ti Al  B                                
   1.00000000000000     
    20.7387754713723211    0.0000000000000000    0.0000000000000000
     0.0000000000000000   20.1808224395979394    0.0000000000000000
     0.0000000000000000    0.0000000000000000   18.7770921638321582
   Ti   Al   B 
     2     4    12
Direct
  0.4393572053203113  0.4377832457581728  0.5778641610688749
  0.4500335924762673  0.5330220433575668  0.4616821697354733
  0.5695540983688431  0.5850903918216295  0.5547865221334896
  0.5678150542266920  0.4013933458285176  0.4043103912857322
  0.5729407853494912  0.3842731143646217  0.5747890988552283
  0.6371141611333935  0.4848898230239109  0.5204648544605531
  0.4770789583637786  0.5395470230264354  0.6010845562054268
  0.5217631432265831  0.4540497682357800  0.4961211354506808
  0.5080217289707089  0.3680716904026773  0.4928358655184568
  0.3813143550926250  0.4444459488838283  0.4738041746885546
  0.4463618320844562  0.4048528509205354  0.4646332080891813
  0.5333909214262105  0.4825654661108761  0.5840563539268886
  0.5434674696545735  0.5824308013060171  0.4338142111343560
  0.3611043761432654  0.4998532449104175  0.5247156121959091
  0.5599132250594001  0.5058813319204731  0.4333623619292469
  0.5027177185106673  0.6290604516262648  0.4826882734046909
  0.4046557439156127  0.5471947248991451  0.5714285170709597
  0.4632145268551524  0.6066839499159866  0.5518893797216626
 
  0.00000000E+00  0.00000000E+00  0.00000000E+00
  0.00000000E+00  0.00000000E+00  0.00000000E+00
  0.00000000E+00  0.00000000E+00  0.00000000E+00
  0.00000000E+00  0.00000000E+00  0.00000000E+00
  0.00000000E+00  0.00000000E+00  0.00000000E+00
  0.00000000E+00  0.00000000E+00  0.00000000E+00
  0.00000000E+00  0.00000000E+00  0.00000000E+00
  0.00000000E+00  0.00000000E+00  0.00000000E+00
  0.00000000E+00  0.00000000E+00  0.00000000E+00
  0.00000000E+00  0.00000000E+00  0.00000000E+00
  0.00000000E+00  0.00000000E+00  0.00000000E+00
  0.00000000E+00  0.00000000E+00  0.00000000E+00
  0.00000000E+00  0.00000000E+00  0.00000000E+00
  0.00000000E+00  0.00000000E+00  0.00000000E+00
  0.00000000E+00  0.00000000E+00  0.00000000E+00
  0.00000000E+00  0.00000000E+00  0.00000000E+00
  0.00000000E+00  0.00000000E+00  0.00000000E+00
  0.00000000E+00  0.00000000E+00  0.00000000E+00
