Ti Al  B 
 1.0000000000000000
    20.7387754713723211    0.0000000000000000    0.0000000000000000
     0.0000000000000000   20.1808224395979394    0.0000000000000000
     0.0000000000000000    0.0000000000000000   18.7770921638321582
 Ti  Al  B  
   2   4  12
Cartesian
  9.1317576200307293  8.8196603857183611 10.8658840758170001
  9.3411386747513703 10.7490241983079713  8.6486552356170989
 11.8287243918883398 11.8531704115147605 10.4845305433700382
 11.7611625086029399  8.1279159760145099  7.4999999999999991
 11.8493232576333707  7.7429848877122902 10.8316012650221403
 13.2387754713723211  9.8040830027525203  9.8304119443131306
  9.8961425276249102 10.8969207348158683 11.2770921638321582
 10.9071143462147297  9.1947921108572892  9.3107862336743885
 10.5208227405661798  7.4999999999999991  9.2031658626595103
  7.8594196555845812  8.9280816364632685  8.9204906601740177
  9.1122982993321209  8.0117934396342498  8.7585914137600298
 11.0638323100073297  9.7588486270392707 10.9451917098821596
 11.2907883656197701 11.7546013207443494  8.1455150839488191
  7.5000000000000000 10.0888470004532280  9.8509927090538483
 11.6504779382921502 10.2209833415953781  8.1313758268398075
 10.4426004190919901 12.6808224395979394  9.0603348260001404
  8.3977713579464996 11.0500497704859590 10.7183232378750581
  9.6087469580085703 12.2469134853264912 10.3476258263426892
