Ti Al  B                                
   1.00000000000000     
    20.7387754713723211    0.0000000000000000    0.0000000000000000
     0.0000000000000000   20.1808224395979394    0.0000000000000000
     0.0000000000000000    0.0000000000000000   18.7770921638321582
   Ti   Al   B 
     2     4    12
Direct
  0.4000520022413498  0.4393991515200815  0.6268420903185381
  0.5558048362477234  0.4935016045079629  0.5702635099398197
  0.6020224531919814  0.6147280235869179  0.5182825838629347
  0.4683836895823212  0.5385810672983717  0.3678461358426281
  0.5090848357208446  0.4321791531005322  0.6855571312078830
  0.6039549160639626  0.5416222330623041  0.4018819755146393
  0.4705591040588861  0.5244157881285646  0.6327411813134513
  0.4321799143439486  0.4139103335436362  0.5215158844448836
  0.4918010605709700  0.3999019328804954  0.5785831806317333
  0.4517149324944326  0.4762280157297858  0.4605294878020104
  0.5083539750004143  0.4146686873326750  0.4940089444517159
  0.5134727686002730  0.5460755111894132  0.4792628222400716
  0.5261720642898938  0.6127981571026399  0.4234709605409316
  0.3876257162281498  0.4799544666789934  0.5217919502522033
  0.5363746853049409  0.4722134149729313  0.4416777356887625
  0.4951978655358765  0.6289347401908395  0.4983981812207758
  0.4096920979679186  0.5354549015143009  0.5790711084237690
  0.4794946845679827  0.5783456557634089  0.5637252117721974
 
  0.00000000E+00  0.00000000E+00  0.00000000E+00
  0.00000000E+00  0.00000000E+00  0.00000000E+00
  0.00000000E+00  0.00000000E+00  0.00000000E+00
  0.00000000E+00  0.00000000E+00  0.00000000E+00
  0.00000000E+00  0.00000000E+00  0.00000000E+00
  0.00000000E+00  0.00000000E+00  0.00000000E+00
  0.00000000E+00  0.00000000E+00  0.00000000E+00
  0.00000000E+00  0.00000000E+00  0.00000000E+00
  0.00000000E+00  0.00000000E+00  0.00000000E+00
  0.00000000E+00  0.00000000E+00  0.00000000E+00
  0.00000000E+00  0.00000000E+00  0.00000000E+00
  0.00000000E+00  0.00000000E+00  0.00000000E+00
  0.00000000E+00  0.00000000E+00  0.00000000E+00
  0.00000000E+00  0.00000000E+00  0.00000000E+00
  0.00000000E+00  0.00000000E+00  0.00000000E+00
  0.00000000E+00  0.00000000E+00  0.00000000E+00
  0.00000000E+00  0.00000000E+00  0.00000000E+00
  0.00000000E+00  0.00000000E+00  0.00000000E+00
