Ti Al  B 
 1.0000000000000000
    20.7387754713723211    0.0000000000000000    0.0000000000000000
     0.0000000000000000   20.1808224395979394    0.0000000000000000
     0.0000000000000000    0.0000000000000000   18.7770921638321582
 Ti  Al  B  
   2   4  12
Cartesian
  9.4193281771998194 10.0751514175328971 12.7566672988866312
 11.2985785489203536  8.0501303841030154 11.7030927307681480
 12.4741567302994945 14.0971867074644450  8.5494754945646232
  9.6877698712778262 10.2787332756731082  6.6477078096833235
 12.6568667463502873  6.1142356098706845 12.0693336502119806
 15.0050226915591018 11.8355567894350813  8.6952992575355808
  9.4024349655718975 11.4307082472280968 11.5584474785609892
 10.0948520585481489  8.4578733001889397 10.7037547713737542
  9.0867673721731439  7.5198063313487813 10.3083896907043489
  8.8674960684944644  9.1220394314807010  7.3531268895700181
  9.1813363367873269  7.9693562826052755  9.0150324115409681
 11.6429823232720544 11.3042899136706456 10.2074770694599604
 11.7071609188179124 12.4731674633815306  7.4045635176910105
  6.0429197538341928  9.7742566940886189  9.8338523438578651
 10.8832419639713525  9.3136569197919279  9.1498415327680469
  9.1443993430920330 12.9669069940341615  8.1244726766366515
  7.7269120628567860 10.7613131583680985 11.0278797408145088
  9.0488156820839869 12.9671316462284292 10.7475048582209975
