Ti Al  B                                
   1.00000000000000     
    20.7387754713723211    0.0000000000000000    0.0000000000000000
     0.0000000000000000   20.1808224395979394    0.0000000000000000
     0.0000000000000000    0.0000000000000000   18.7770921638321582
   Ti   Al   B 
     2     4    12
Direct
  0.4201218746823517  0.5098234121255768  0.6131324597817129
  0.4616052315718411  0.4917080812973326  0.4768147309115637
  0.5930403618194986  0.5980753246103951  0.6117185334136447
  0.5794927480854059  0.4365256464008909  0.3647238816796382
  0.5513561830530823  0.4791654826947085  0.6107971319272453
  0.4973388540706863  0.6721998492408109  0.5604994693179379
  0.3547512047935901  0.4783601930448574  0.5232767640678314
  0.5710905189591857  0.4551100806693772  0.4826116742294277
  0.5223431001584924  0.3949826838713502  0.4453797903180005
  0.3992246962826344  0.4176221109018923  0.5417291495698066
  0.4627617106739917  0.3815563582984175  0.5022829314272471
  0.5348830801549490  0.4012268322486843  0.5339955842281453
  0.5605056527100484  0.5467668483270416  0.5038968983665155
  0.3698102184933413  0.5523240638989949  0.5130102574116954
  0.5818025084737019  0.5192969431848812  0.4293065944334908
  0.4997358748723234  0.5630663955494017  0.5606898026813658
  0.4677723757730348  0.4157422171264832  0.5847492550848027
  0.4301634659800496  0.5952048457228628  0.5299665132902284
 
  0.00000000E+00  0.00000000E+00  0.00000000E+00
  0.00000000E+00  0.00000000E+00  0.00000000E+00
  0.00000000E+00  0.00000000E+00  0.00000000E+00
  0.00000000E+00  0.00000000E+00  0.00000000E+00
  0.00000000E+00  0.00000000E+00  0.00000000E+00
  0.00000000E+00  0.00000000E+00  0.00000000E+00
  0.00000000E+00  0.00000000E+00  0.00000000E+00
  0.00000000E+00  0.00000000E+00  0.00000000E+00
  0.00000000E+00  0.00000000E+00  0.00000000E+00
  0.00000000E+00  0.00000000E+00  0.00000000E+00
  0.00000000E+00  0.00000000E+00  0.00000000E+00
  0.00000000E+00  0.00000000E+00  0.00000000E+00
  0.00000000E+00  0.00000000E+00  0.00000000E+00
  0.00000000E+00  0.00000000E+00  0.00000000E+00
  0.00000000E+00  0.00000000E+00  0.00000000E+00
  0.00000000E+00  0.00000000E+00  0.00000000E+00
  0.00000000E+00  0.00000000E+00  0.00000000E+00
  0.00000000E+00  0.00000000E+00  0.00000000E+00
