Ti Al  B 
 1.0000000000000000
    20.7387754713723211    0.0000000000000000    0.0000000000000000
     0.0000000000000000   20.1808224395979394    0.0000000000000000
     0.0000000000000000    0.0000000000000000   18.7770921638321582
 Ti  Al  B  
   2   4  12
Cartesian
  7.3017575939498398 10.1689311429082032 11.6372167268549163
 10.9662570807494895  8.6312727615078764  8.6833070463038684
 10.9247129462118799 12.0377775830390981 12.1538704447905683
 10.4079051698594167  7.9471439149096845  6.4392116810348021
 12.3245687907416581  9.9002011679807769 12.0133731025836603
 10.9595468335834560 11.3117214052659047 10.4448772255549969
  9.7646043087548406 11.1370879505282634  9.6824154027608529
 11.4449906274700925 10.1428254448500468 10.2918482838200624
 10.5482918662161591  6.0859323265842074  7.6275454970562588
  8.3444277337990975  8.7972195011611252  9.6049920992092375
 10.6578023902783077  6.8911474648893734  8.3876872017414819
 11.2663931252605902  9.1833717547750879 10.5197824518603262
 10.6849657241711213 11.3814053985845227  8.7402429010894114
  6.5107200469289763 10.6755914866067130 10.8068745145307155
 11.8605045549137049 10.9757823054663692  9.7385314978553961
 10.4382807642525464 12.4967064940014616  8.9348683269472957
  9.9660244679836936  9.9022842380580389 10.3971746083335166
  9.3281643066266096 12.1196482844498448 10.1864396388437086
