Ti Al  B                                
   1.00000000000000     
    20.7387754713723211    0.0000000000000000    0.0000000000000000
     0.0000000000000000   20.1808224395979394    0.0000000000000000
     0.0000000000000000    0.0000000000000000   18.7770921638321582
   Ti   Al   B 
     2     4    12
Direct
  0.4036963563180178  0.5338588733516205  0.6185107490061083
  0.5435614854846177  0.5124392133849658  0.6038540574637025
  0.4269668539669674  0.5884432220329402  0.4741891993509499
  0.4859181229458319  0.4104918683818202  0.3604564476951413
  0.5970797794950721  0.3907653425751189  0.4321692199322062
  0.4518974840775430  0.4205827250597880  0.5800649716049261
  0.4833111470381168  0.5973636243346804  0.5798567576604938
  0.5011699814243497  0.3871694568199021  0.4804686407606645
  0.5490415870711687  0.4096953377833121  0.5503026816482738
  0.3839900962812027  0.4794906147150120  0.4978890660047217
  0.4388596220883554  0.4333840528190310  0.4614928192187217
  0.6060985102593338  0.4575669629893719  0.5181921392980972
  0.5851235705672317  0.5289271507028287  0.4923208472670392
  0.3400386109073376  0.5396410990360382  0.5175622603594600
  0.5186340122300167  0.4737963657285045  0.4907412960875414
  0.5240349802687692  0.5731437997876064  0.5045512919769075
  0.3513988840715948  0.6111591156703352  0.5477968509465401
  0.4156624649066234  0.6358008820434917  0.5807948894713723
 
  0.00000000E+00  0.00000000E+00  0.00000000E+00
  0.00000000E+00  0.00000000E+00  0.00000000E+00
  0.00000000E+00  0.00000000E+00  0.00000000E+00
  0.00000000E+00  0.00000000E+00  0.00000000E+00
  0.00000000E+00  0.00000000E+00  0.00000000E+00
  0.00000000E+00  0.00000000E+00  0.00000000E+00
  0.00000000E+00  0.00000000E+00  0.00000000E+00
  0.00000000E+00  0.00000000E+00  0.00000000E+00
  0.00000000E+00  0.00000000E+00  0.00000000E+00
  0.00000000E+00  0.00000000E+00  0.00000000E+00
  0.00000000E+00  0.00000000E+00  0.00000000E+00
  0.00000000E+00  0.00000000E+00  0.00000000E+00
  0.00000000E+00  0.00000000E+00  0.00000000E+00
  0.00000000E+00  0.00000000E+00  0.00000000E+00
  0.00000000E+00  0.00000000E+00  0.00000000E+00
  0.00000000E+00  0.00000000E+00  0.00000000E+00
  0.00000000E+00  0.00000000E+00  0.00000000E+00
  0.00000000E+00  0.00000000E+00  0.00000000E+00
