Ti Al  B 
 1.0000000000000000
    20.7387754713723211    0.0000000000000000    0.0000000000000000
     0.0000000000000000   20.1808224395979394    0.0000000000000000
     0.0000000000000000    0.0000000000000000   18.7770921638321582
 Ti  Al  B  
   2   4  12
Cartesian
  7.6016851104203313 11.1297091887234441 12.5812481089203718
 10.9172923576928493 11.8451431260829647 11.6859677943481977
 10.7886699053620294 13.4076712769983821 10.9288631856962226
 11.7746058836356688  6.1517864981375814  5.3986427855511820
 12.3844758954158731  5.6927514826542005  8.4938001748733711
 11.3035065037193156 10.5151178487889325 11.0821750942320278
  9.0930711366915578 11.9580644815043602 10.7909327345074502
  9.3472548405216163  7.6782857107292894  9.2148167187670307
 11.4630416926594236  8.3672132257572365  9.2523108400638030
  6.8439489567156926 10.1013285049164150  8.2439403684137584
  9.4592952173393581  9.2013626969210165  8.0606719431081757
 11.8993536513806148  9.0779059851424293 11.3703806994794387
 12.0149844740729019 10.8941001320192328  7.2247514808005775
  6.4857700782901659  9.3017409960916613 11.0777362129521908
 11.2172293825725902  9.3118699052905374  7.5209015926531082
 10.7201860123487300 12.1667848302762529  9.5343356052494066
  7.0309014136904358 12.1247866860565985 11.7382385278036008
  8.1426574165815353 12.3732296823596002 10.2622712123665742
