Ti Al  B                                
   1.00000000000000     
    20.7387754713723211    0.0000000000000000    0.0000000000000000
     0.0000000000000000   20.1808224395979394    0.0000000000000000
     0.0000000000000000    0.0000000000000000   18.7770921638321582
   Ti   Al   B 
     2     4    12
Direct
  0.4632674525715703  0.3817798203322636  0.5486158331481794
  0.5695169703778890  0.5156591384546773  0.4337889844271124
  0.6315086734872476  0.6486798216475171  0.5732313219912974
  0.5116065986853972  0.3936205155734929  0.4080695286936044
  0.5474089946757988  0.4655702243411312  0.6225486372732243
  0.6655678734890007  0.5100751815867192  0.6221614967863615
  0.5231919070420609  0.6088161768888504  0.5765299472681179
  0.6158601336446915  0.4700423242997209  0.5283121906675807
  0.5517698905393820  0.4264726718270597  0.5076993571222098
  0.3790583030398563  0.3793760851705137  0.4125674760695590
  0.4260835674284310  0.3365942673232608  0.4563836357835827
  0.4502697535733873  0.4914454835658262  0.5696693633211590
  0.5578622513824850  0.6048609300131209  0.4976860031153756
  0.4184736260180946  0.4367769532341050  0.4447121984820719
  0.4787001822259943  0.4776706223329244  0.4819971687884558
  0.6062980058967182  0.5488789513590150  0.5372533559589611
  0.4695410914087320  0.5600716404504532  0.6025997900210827
  0.4936025380042024  0.5542321343999957  0.5144271069225754
 
  0.00000000E+00  0.00000000E+00  0.00000000E+00
  0.00000000E+00  0.00000000E+00  0.00000000E+00
  0.00000000E+00  0.00000000E+00  0.00000000E+00
  0.00000000E+00  0.00000000E+00  0.00000000E+00
  0.00000000E+00  0.00000000E+00  0.00000000E+00
  0.00000000E+00  0.00000000E+00  0.00000000E+00
  0.00000000E+00  0.00000000E+00  0.00000000E+00
  0.00000000E+00  0.00000000E+00  0.00000000E+00
  0.00000000E+00  0.00000000E+00  0.00000000E+00
  0.00000000E+00  0.00000000E+00  0.00000000E+00
  0.00000000E+00  0.00000000E+00  0.00000000E+00
  0.00000000E+00  0.00000000E+00  0.00000000E+00
  0.00000000E+00  0.00000000E+00  0.00000000E+00
  0.00000000E+00  0.00000000E+00  0.00000000E+00
  0.00000000E+00  0.00000000E+00  0.00000000E+00
  0.00000000E+00  0.00000000E+00  0.00000000E+00
  0.00000000E+00  0.00000000E+00  0.00000000E+00
  0.00000000E+00  0.00000000E+00  0.00000000E+00
