Ti Al  B 
 1.0000000000000000
    20.7387754713723211    0.0000000000000000    0.0000000000000000
     0.0000000000000000   20.1808224395979394    0.0000000000000000
     0.0000000000000000    0.0000000000000000   18.7770921638321582
 Ti  Al  B  
   2   4  12
Cartesian
  8.5984473818270057  7.8664818569444979  9.9833701495416296
 12.3471234596181318 10.1901721327114156  6.4213791672170721
 14.1555990723403600 13.7572273741133611 11.2383259725594318
 11.8601423684628102  7.3461972676852181  7.9523923425991976
 11.9149445907138105  8.7899255816493564 12.5396052984846182
 15.5941757741125819 11.4306492837938212 11.8266286948300756
 10.4679077077353604 11.8241027218801769 11.2241468674317701
 12.0272353437938193  8.8625970162690439 10.6622378073716551
 10.8202699678736796  7.8029798174098781  9.5865403117588688
  6.6300130322823030  7.8900367884766425  7.2948687639131791
  8.6665563371835841  6.6511094001643194  7.9796425407301665
  9.6243665791448816  9.3732400923582020 12.0961866316806077
 10.9042885766848823 13.3448659992041865  7.2479927352895146
  8.4780590701218230  8.6250565811732969  8.7995164359695117
 10.8530216645706279  9.9587387714230449  8.2251650884222549
 12.0696213427701640 11.1074538524109485 10.4679582819425043
  8.3293612031468705 11.5788729463516180 11.5283423097059092
 10.7652566961985610 11.4059097068888633 10.2709452634679916
